clingo version 5.3.0
Reading from x5_y5_n25_r3_s1_ps1_pr3_u3_o6_N001.lp ...
Solving...
UNSATISFIABLE

Models       : 0
Calls        : 1
Time         : 0.014s (Solving: 0.00s 1st Model: 0.00s Unsat: 0.00s)
CPU Time     : 0.008s
